; benchmark generated from python API
(set-info :status unknown)
(declare-fun L_1 () Real)
(declare-fun S_1 () Real)
(declare-fun A_1 () Real)
(declare-fun L_2 () Real)
(declare-fun S_2 () Real)
(declare-fun A_2 () Real)
(declare-fun S_3 () Real)
(declare-fun L_3 () Real)
(declare-fun A_3 () Real)
(declare-fun S_4 () Real)
(declare-fun A_4 () Real)
(declare-fun B () Real)
(declare-fun L_0 () Real)
(declare-fun S_0 () Real)
(declare-fun A_0 () Real)
(assert
 (let (($x1086 (<= (+ A_2 (* (- 1.0) S_3) (* (- 1.0) B) (* (- 1.0) L_2)) 0.0)))
 (let (($x34 (>= L_0 0.0)))
 (let (($x709 (>= B 5.0)))
 (let (($x10988 (<= (+ (* (- 1.0) A_3) L_3 S_4 (* (- (/ 1.0 2.0)) S_3) (* (/ 1.0 2.0) S_0)) 0.0)))
 (let ((?x441 (* (- 1.0) L_1)))
 (let ((?x365 (* (- 1.0) S_3)))
 (let ((?x338 (* (- 1.0) A_3)))
 (let (($x863 (<= (+ A_2 ?x365 (* (- 1.0) L_2)) 0.0)))
 (let (($x9335 (<= (+ (* (- 1.0) A_2) L_2 S_4 (* (- 2.0) S_2) (* 2.0 S_0)) 0.0)))
 (let (($x869 (<= (+ A_1 (* (- 1.0) S_2) ?x441) 0.0)))
 (let (($x857 (<= (+ A_3 (* (- 1.0) L_3) (* (- 1.0) S_4)) 0.0)))
 (let (($x26460 (or $x857 (<= (+ (* (- 2.0) S_4) (* 3.0 S_2) (* (- 1.0) S_1)) 0.0))))
 (let (($x5926 (<= (+ (* (- (/ 1.0 2.0)) A_1) (* (/ 1.0 2.0) L_1) (* (- (/ 1.0 2.0)) S_4) S_2) 0.0)))
 (let ((?x354 (* (- 1.0) S_4)))
 (let ((?x428 (* (- 1.0) L_2)))
 (let ((?x874 (* (- 1.0) A_0)))
 (let (($x24345 (or $x857 (<= (+ ?x874 (* (- (/ 1.0 2.0)) S_4) (* (/ 3.0 2.0) S_1) L_0) 0.0) (<= (+ A_2 ?x874 ?x428 ?x354 S_1 L_0) 0.0))))
 (let (($x25693 (or $x857 (<= (+ (* (- 3.0) S_4) (* 4.0 S_2) (* (- 1.0) S_0)) 0.0))))
 (let ((?x965 (* (- 1.0) S_0)))
 (let ((?x7243 (* (- 2.0) S_4)))
 (let ((?x1084 (* (- 2.0) L_2)))
 (let ((?x1127 (* 2.0 A_2)))
 (let (($x24774 (or $x857 (<= (+ ?x354 (* 2.0 S_1) ?x965) 0.0) (<= (+ ?x1127 ?x1084 ?x7243 S_1 ?x965) 0.0))))
 (let (($x25243 (or $x869 (<= (+ (* (- 1.0) A_2) L_2 S_3 (* (- 1.0) S_2) S_0) 0.0))))
 (let (($x22930 (or $x869 (<= (+ (* (/ 1.0 3.0) S_3) (* (- 1.0) S_2) (* (/ 2.0 3.0) S_0)) 0.0))))
 (let (($x28504 (<= (+ A_2 ?x428 ?x354) (- 5.0))))
 (let (($x29776 (or $x857 (<= (+ (* (- (/ 1.0 3.0)) S_4) (* (/ 1.0 3.0) S_0)) (- 5.0)) (<= (+ (* (/ 1.0 2.0) A_1) (* (- (/ 1.0 2.0)) L_1) (* (- (/ 1.0 2.0)) S_4)) (- 5.0)) $x28504)))
 (let (($x7983 (<= (+ (* (- 1.0) A_2) (* (- 1.0) A_1) L_2 S_3 S_0 B L_1) 0.0)))
 (let (($x889 (= (+ L_1 (* (- 1.0) L_0)) 0.0)))
 (let ((?x1171 (* 2.0 L_1)))
 (let ((?x2674 (* 2.0 B)))
 (let ((?x2884 (* 2.0 S_0)))
 (let ((?x1170 (* (- 2.0) A_1)))
 (let ((?x342 (* (- 1.0) A_2)))
 (let ((?x3811 (+ (* (- 4.0) A_1) S_4 (* 3.0 S_0) (* 4.0 B) (* 4.0 L_1))))
 (let (($x9161 (<= (+ (* 2.0 A_1) ?x354 ?x965 (* (- 2.0) B) (* (- 2.0) L_1)) 0.0)))
 (let (($x30710 (or $x857 $x9161 (<= (+ ?x1127 A_1 ?x1084 ?x7243 ?x965 (* (- 1.0) B) ?x441) 0.0))))
 (let (($x13096 (<= (+ A_2 A_1 ?x874 ?x428 ?x354 (* (- 1.0) B) L_0 ?x441) 0.0)))
 (let ((?x4681 (* (- (/ 3.0 2.0)) L_1)))
 (let ((?x5775 (* (- (/ 3.0 2.0)) B)))
 (let ((?x5930 (* (- (/ 1.0 2.0)) S_4)))
 (let ((?x4199 (* (/ 3.0 2.0) A_1)))
 (let (($x9179 (<= (+ (* (- (/ 1.0 2.0)) A_1) ?x5930 S_2 (* (/ 1.0 2.0) B) (* (/ 1.0 2.0) L_1)) 0.0)))
 (let ((?x415 (* (- 1.0) L_3)))
 (let ((?x494 (+ L_2 ?x415)))
 (let (($x21985 (<= 0.0 ?x494)))
 (let ((?x1720 (* 2.0 L_3)))
 (let ((?x387 (* (- 1.0) S_1)))
 (let ((?x5233 (* 3.0 S_2)))
 (let ((?x1371 (* (- 2.0) A_3)))
 (let ((?x1592 (* 3.0 L_3)))
 (let ((?x1811 (* 3.0 B)))
 (let ((?x2868 (* 2.0 S_4)))
 (let ((?x1812 (* (- 3.0) A_3)))
 (let ((?x1382 (* (/ 1.0 3.0) S_0)))
 (let (($x5198 (<= (+ (* (- (/ 4.0 3.0)) A_3) S_4 ?x1382 (* (/ 4.0 3.0) B) (* (/ 4.0 3.0) L_3)) 0.0)))
 (let (($x2649 (<= (+ ?x1371 A_2 ?x428 S_4 ?x2674 ?x1720) 0.0)))
 (let (($x53241 (or (<= (+ ?x338 (* 2.0 S_1) ?x965 B L_3) 0.0) (<= (+ ?x1371 ?x1127 ?x1084 S_1 ?x965 ?x2674 ?x1720) 0.0) $x21985)))
 (let ((?x1311 (* (- (/ 1.0 3.0)) L_3)))
 (let ((?x5172 (* (- (/ 1.0 3.0)) B)))
 (let ((?x1643 (* (/ 2.0 3.0) S_0)))
 (let ((?x376 (* (- 1.0) S_2)))
 (let ((?x5190 (* (/ 1.0 3.0) A_3)))
 (let (($x29480 (or $x863 (<= (+ (* (- (/ 1.0 2.0)) S_3) (* (/ 1.0 2.0) S_0)) (- 5.0)) (<= (+ A_1 ?x441 ?x365) (- 5.0)))))
 (let (($x27744 (<= 0.0 (+ (* (- 1.0) A_1) (* (/ 1.0 2.0) S_3) (* (/ 1.0 2.0) S_0) L_1))))
 (let (($x53653 (or $x863 (not (<= 0.0 (+ ?x5190 (* (- 1.0) A_1) ?x1643 ?x5172 L_1 ?x1311))) $x27744)))
 (let (($x4457 (<= (+ A_3 A_1 ?x415 (* (- 2.0) S_3) (* (- 1.0) B) ?x441) 0.0)))
 (let (($x27397 (<= 0.0 (+ ?x5190 (* (- 1.0) A_1) ?x1643 ?x5172 L_1 ?x1311))))
 (let (($x5188 (<= (+ (* (/ 2.0 3.0) A_3) ?x365 ?x1382 (* (- (/ 2.0 3.0)) B) (* (- (/ 2.0 3.0)) L_3)) 0.0)))
 (let (($x53456 (or $x889 (<= (+ (* (- 3.0) A_1) S_3 ?x2884 ?x1811 (* 3.0 L_1)) 0.0))))
 (let ((?x5404 (* (/ 3.0 2.0) B)))
 (let ((?x5660 (* (/ 1.0 2.0) S_1)))
 (let (($x52954 (or $x2649 (<= (+ (* (- (/ 3.0 2.0)) A_3) S_4 ?x5660 ?x5404 (* (/ 3.0 2.0) L_3)) 0.0) $x21985)))
 (let (($x27253 (<= (+ (* (- (/ 1.0 3.0)) A_3) ?x1382 (* (/ 1.0 3.0) B) (* (/ 1.0 3.0) L_3)) (- 5.0))))
 (let (($x26971 (<= (+ ?x338 A_2 ?x428 B L_3) (- 5.0))))
 (let (($x5325 (<= (+ (* (/ 1.0 2.0) A_3) ?x365 ?x5660 (* (- (/ 1.0 2.0)) B) (* (- (/ 1.0 2.0)) L_3)) 0.0)))
 (let (($x36031 (or $x857 (<= (+ ?x4199 ?x5930 ?x387 ?x5775 ?x4681) 0.0) (<= (+ A_2 A_1 ?x428 ?x354 ?x387 (* (- 1.0) B) ?x441) 0.0))))
 (let ((?x1175 (* (- 3.0) L_1)))
 (let ((?x3642 (* (- 3.0) B)))
 (let ((?x2442 (* (- 2.0) S_3)))
 (let ((?x1174 (* 3.0 A_1)))
 (let (($x28004 (<= (+ (* (/ 1.0 2.0) A_1) ?x5930 (* (- (/ 1.0 2.0)) B) (* (- (/ 1.0 2.0)) L_1)) (- 5.0))))
 (let ((?x11211 (* (/ 1.0 2.0) L_2)))
 (let ((?x5293 (* (/ 1.0 2.0) B)))
 (let ((?x6258 (* (/ 1.0 2.0) S_0)))
 (let ((?x11188 (* (- (/ 1.0 2.0)) A_2)))
 (let (($x887 (= (+ L_2 ?x441) 0.0)))
 (let (($x53551 (or $x887 (<= (+ ?x338 ?x342 A_1 L_3 S_4 ?x441 B L_2) 0.0) (<= (+ ?x338 ?x11188 L_3 S_4 ?x6258 ?x5293 ?x11211) 0.0))))
 (let ((?x1090 (* 3.0 L_2)))
 (let ((?x1140 (* (- 2.0) L_1)))
 (let ((?x1158 (* 2.0 A_1)))
 (let ((?x1106 (* (- 3.0) A_2)))
 (let (($x33871 (or $x887 (<= (+ ?x1106 ?x1158 ?x1140 S_4 ?x1811 ?x1090) 0.0) (<= (+ (* (- 2.0) A_2) S_4 S_0 ?x2674 (* 2.0 L_2)) 0.0))))
 (let (($x54404 (or $x857 (<= (+ (* 3.0 A_2) ?x7243 ?x387 ?x3642 (* (- 3.0) L_2)) 0.0))))
 (let (($x3512 (<= (+ ?x1127 (* (- 1.0) A_1) L_1 ?x354 (* (- 2.0) B) ?x1084) 0.0)))
 (let (($x53170 (or $x887 (<= (+ ?x342 ?x874 (* 2.0 S_1) B L_0 L_2) 0.0))))
 (let ((?x667 (* (- 4.0) L_2)))
 (let ((?x4809 (* (- 4.0) B)))
 (let ((?x7528 (* (- 3.0) S_4)))
 (let ((?x1786 (* 4.0 A_2)))
 (let (($x11583 (<= (+ (* (- 2.0) A_2) (* 3.0 S_1) ?x965 ?x2674 (* 2.0 L_2)) 0.0)))
 (let (($x3319 (<= (+ (* (- 2.0) A_2) A_1 ?x441 S_3 ?x2674 (* 2.0 L_2)) 0.0)))
 (let (($x34424 (or $x887 $x3319 (<= (+ (* (- (/ 3.0 2.0)) A_2) S_3 ?x6258 ?x5404 (* (/ 3.0 2.0) L_2)) 0.0))))
 (let (($x53157 (or $x887 (<= (+ ?x342 A_1 ?x441 B L_2) (- 5.0)) (<= (+ ?x11188 ?x6258 ?x5293 ?x11211) (- 5.0)))))
 (let (($x52890 (or $x887 (<= (+ (* (- 2.0) A_2) S_3 S_1 ?x2674 (* 2.0 L_2)) 0.0))))
 (let (($x52448 (or $x889 (<= (+ ?x338 (* (- 1.0) A_1) L_3 S_4 S_0 B L_1) 0.0))))
 (let (($x13337 (or $x863 (<= (+ (* (/ 1.0 2.0) S_4) ?x365 ?x6258) 0.0) (<= (+ ?x1158 ?x1140 S_4 (* (- 3.0) S_3)) 0.0))))
 (let (($x8983 (<= (+ (* 3.0 A_2) ?x874 ?x7243 ?x3642 L_0 (* (- 3.0) L_2)) 0.0)))
 (let ((?x5677 (* (/ 1.0 2.0) L_3)))
 (let ((?x5696 (* (/ 3.0 2.0) S_1)))
 (let ((?x5672 (* (- (/ 1.0 2.0)) A_3)))
 (let (($x52334 (or (<= (+ ?x5672 ?x874 ?x5696 ?x5293 L_0 ?x5677) 0.0) (<= (+ ?x338 A_2 ?x874 ?x428 S_1 B L_0 L_3) 0.0) $x21985)))
 (let (($x5552 (<= (+ ?x338 (* (- 1.0) A_1) L_1 (* 2.0 S_2) B L_3) 0.0)))
 (let (($x52533 (or $x869 (<= (+ A_3 ?x342 L_2 ?x376 S_0 (* (- 1.0) B) ?x415) 0.0))))
 (let (($x52965 (or $x863 (<= (+ ?x1158 S_4 (* (- 3.0) S_3) (* (- 2.0) B) ?x1140) 0.0))))
 (let (($x11182 (<= (+ (* (/ 1.0 2.0) A_2) ?x376 ?x6258 (* (- (/ 1.0 2.0)) B) (* (- (/ 1.0 2.0)) L_2)) 0.0)))
 (let (($x30521 (or $x863 (<= (+ ?x338 A_1 L_3 S_4 ?x365 (* (- 1.0) B) ?x441) 0.0))))
 (let (($x52221 (or $x889 (<= (+ A_3 ?x342 (* (- 1.0) A_1) L_2 S_0 L_1 ?x415) 0.0))))
 (let (($x2865 (<= (+ ?x338 ?x1174 (* (- 2.0) S_1) (* (- 2.0) B) ?x1175 L_3) 0.0)))
 (let (($x53327 (or (<= (+ ?x338 A_2 A_1 ?x428 ?x387 ?x441 L_3) 0.0) $x2865 $x21985)))
 (let (($x54263 (or (<= (+ ?x1371 ?x1127 A_1 ?x1084 ?x965 B ?x441 ?x1720) 0.0) (<= (+ ?x338 ?x1158 ?x965 (* (- 1.0) B) ?x1140 L_3) 0.0) $x21985)))
 (let (($x2862 (<= (+ A_3 (* (- 3.0) A_1) ?x2884 ?x2674 (* 3.0 L_1) ?x415) 0.0)))
 (let ((?x2716 (* (- 2.0) B)))
 (let (($x2892 (<= (+ ?x338 ?x1174 (* (- 2.0) A_0) ?x2716 (* 2.0 L_0) ?x1175 L_3) 0.0)))
 (let (($x52997 (or (<= (+ ?x338 A_2 A_1 ?x874 ?x428 L_0 ?x441 L_3) 0.0) $x2892 $x21985)))
 (let (($x2859 (<= (+ ?x338 (* (- 1.0) A_1) (* 2.0 S_2) ?x2674 L_1 L_3) 0.0)))
 (let (($x3003 (= (+ ?x338 ?x1127 (* (- 1.0) A_1) L_1 (* (- 1.0) B) ?x1084 L_3) 0.0)))
 (let (($x315 (<= 0.0 (+ ?x338 ?x1127 (* (- 1.0) A_1) (* (- 1.0) B) L_1 ?x1084 L_3))))
 (let ((?x1183 (* (- 3.0) L_2)))
 (let ((?x458 (* (- 1.0) B)))
 (let ((?x1182 (* 3.0 A_2)))
 (let (($x1738 (<= (+ (* 2.0 A_3) ?x1106 S_0 B ?x1090 (* (- 2.0) L_3)) 0.0)))
 (let (($x1721 (<= (+ A_3 (* (- 2.0) A_2) S_1 B (* 2.0 L_2) ?x415) 0.0)))
 (let (($x1067 (<= (+ (* (- 2.0) A_2) A_1 S_3 B ?x441 (* 2.0 L_2)) 0.0)))
 (let (($x52741 (or $x857 $x889 (<= (+ ?x1127 (* (- 1.0) A_1) ?x354 ?x458 L_1 ?x1084) 0.0))))
 (let (($x279 (not (<= 0.0 (+ L_1 ?x428)))))
 (let (($x30853 (or $x279 $x889 (<= (+ ?x338 ?x1127 (* (- 1.0) A_1) ?x441 L_3) 0.0) $x21985)))
 (let (($x26448 (not $x21985)))
 (let (($x54447 (or (<= 0.0 (+ ?x338 ?x1127 (* (- 1.0) A_1) L_1 ?x428)) $x887 $x26448)))
 (let (($x31263 (or $x887 $x889 (= (+ ?x338 ?x1127 (* (- 1.0) A_1) L_1 ?x1084 L_3) 0.0) $x21985)))
 (let (($x1177 (<= (+ (* (- 2.0) A_2) ?x1174 ?x965 ?x458 ?x1175 (* 2.0 L_2)) 0.0)))
 (let ((?x930 (* 2.0 L_2)))
 (let ((?x502 (* (- 1.0) L_0)))
 (let ((?x1114 (* (- 2.0) A_2)))
 (let (($x53914 (or $x887 (not $x889) (<= (+ A_3 ?x1114 A_1 ?x502 ?x930 ?x415) 0.0))))
 (let (($x96 (>= S_1 S_0)))
 (let (($x99 (>= S_2 S_1)))
 (let (($x102 (>= S_3 S_2)))
 (let (($x105 (>= S_4 S_3)))
 (let (($x107 (>= A_1 A_0)))
 (let (($x108 (>= A_2 A_1)))
 (let (($x109 (>= A_3 A_2)))
 (let (($x110 (>= A_4 A_3)))
 (and $x110 $x109 $x108 $x107 $x105 $x102 $x99 $x96 (or (not (<= 0.0 (+ L_0 ?x441))) $x889) (<= (+ A_1 ?x376 ?x458 ?x441) 0.0) (or $x279 $x887) (or $x889 (<= (+ (* (- 1.0) A_1) S_1 B L_1) 0.0)) (or $x889 (<= (+ A_2 ?x1170 S_0 B ?x1171 ?x428) 0.0)) (or (<= (+ ?x342 S_2 B L_2) 0.0) $x887) (or (= (+ L_3 ?x428) 0.0) $x26448) $x53914 (or (<= (+ ?x338 S_3 B L_3) 0.0) $x21985) (<= (+ A_3 ?x354 ?x458 ?x415) 0.0) (or (<= (+ ?x342 A_1 ?x441 L_2) (- 5.0)) $x887) (or $x887 (<= (+ ?x342 ?x1158 ?x387 ?x458 ?x1140 L_2) 0.0)) (or $x887 $x1177) $x31263 $x54447 (or $x21985 (<= (+ ?x338 A_2 ?x428 L_3) (- 5.0))) (or (<= (+ ?x1371 A_2 S_4 B ?x428 ?x1720) 0.0) $x21985) $x30853 $x52741 (or $x887 (<= (+ ?x342 ?x1158 ?x874 ?x458 L_0 ?x1140 L_2) 0.0)) (or $x887 $x1067) (or $x887 (<= (+ ?x1106 ?x1158 S_4 B ?x1140 ?x1090) 0.0)) (or (<= (+ ?x338 ?x1127 ?x376 ?x458 ?x1084 L_3) 0.0) $x21985) (or $x887 $x1721) (or $x315 $x887 $x1738) (or (<= (+ ?x1371 ?x1182 ?x387 ?x458 ?x1183 ?x1720) 0.0) $x21985) (or (<= (+ ?x1812 ?x1786 ?x965 ?x458 ?x667 ?x1592) 0.0) $x21985) (or (<= (+ ?x1371 ?x1182 ?x874 ?x458 L_0 ?x1183 ?x1720) 0.0) $x21985) (or (not $x315) $x3003 $x21985) (or $x889 $x2859 $x21985) $x52997 (or $x887 (<= (+ ?x338 ?x342 A_1 L_3 S_4 ?x441 L_2) 0.0)) (<= (+ A_1 ?x365 ?x458 ?x441) (- 5.0)) (or $x889 $x2862) $x54263 (or $x863 (<= (+ A_3 A_1 ?x2442 ?x2716 ?x441 ?x415) 0.0)) (or $x863 (<= (+ ?x1158 ?x365 ?x387 ?x2716 ?x1140) 0.0)) (or $x889 (<= (+ (* (- 1.0) A_1) S_0 B L_1) (- 5.0))) (or $x21985 (<= (+ ?x338 A_1 ?x441 L_3) (- 10.0))) $x53327 (or $x2649 (<= (+ ?x1812 A_1 ?x2868 ?x2674 ?x441 ?x1592) 0.0) $x21985) $x52221 (or $x869 (<= (+ ?x376 S_0) (- 5.0))) (or $x869 (<= (+ (* (/ 1.0 4.0) S_4) ?x376 (* (/ 3.0 4.0) S_0)) 0.0)) (or $x863 (<= (+ ?x365 S_1) (- 5.0))) (or $x857 (<= (+ ?x354 S_2) (- 5.0))) $x30521 (or $x889 (<= (+ ?x1170 S_2 S_0 ?x2674 ?x1171) 0.0)) (or $x21985 (<= (+ ?x338 S_2 B L_3) (- 5.0))) (or $x21985 $x26971 (<= (+ ?x5672 ?x5660 ?x5293 ?x5677) (- 5.0))) (<= (+ A_2 ?x354 ?x458 ?x428) (- 5.0)) (or $x857 (<= (+ ?x1127 ?x354 ?x376 ?x2716 ?x1084) 0.0)) (or $x869 $x11182) (or $x863 (<= (+ ?x1158 ?x874 ?x365 ?x2716 L_0 ?x1140) 0.0)) $x52965 (or (<= (+ ?x1371 S_4 S_2 ?x2674 ?x1720) 0.0) $x21985) (or $x887 (<= (+ ?x342 S_1 B L_2) (- 5.0))) $x52533 (or $x5552 $x21985) $x52334 (or $x857 $x8983) (or $x857 (<= (+ ?x874 ?x7243 ?x5233 L_0) 0.0)) $x13337 (or $x863 (<= (+ S_4 (* (- 3.0) S_3) (* 2.0 S_1)) 0.0)) (or $x863 (<= (+ ?x2442 (* 3.0 S_1) ?x965) 0.0)) $x52448 (or $x857 (<= (+ ?x5930 ?x5660) (- 5.0)) $x28504) $x52890 (or $x887 (<= (+ ?x1106 S_4 (* 2.0 S_1) ?x1811 ?x1090) 0.0)) $x53157 (or $x887 (<= (+ ?x338 ?x342 L_3 S_4 S_1 B L_2) 0.0)) $x34424 (or $x887 $x11583) (or $x857 (<= (+ ?x1786 ?x7528 ?x965 ?x4809 ?x667) 0.0)) $x53170 (or $x857 $x3512) $x54404 $x33871 $x53551 (or $x857 $x28004) (or $x863 (<= (+ ?x1174 ?x2442 ?x965 ?x3642 ?x1175) 0.0)) $x36031 (or $x863 $x5325) (or $x21985 $x26971 $x27253 (<= (+ ?x338 A_1 ?x441 B L_3) (- 10.0))) $x52954 $x53456 (or $x863 $x5188 $x27397) (or $x863 $x4457 (not $x27744)) $x53653 $x29480 (or $x869 (<= (+ ?x5190 ?x376 ?x1643 ?x5172 ?x1311) 0.0)) (or (<= (+ ?x1812 (* 4.0 S_2) ?x965 ?x1811 ?x1592) 0.0) $x21985) $x53241 (or $x2649 $x5198 (<= (+ ?x1812 A_1 ?x441 ?x2868 ?x1811 ?x1592) 0.0) $x21985) (or (<= (+ ?x1371 ?x874 ?x5233 ?x2674 L_0 ?x1720) 0.0) $x21985) (or (<= (+ ?x1371 ?x5233 ?x387 ?x2674 ?x1720) 0.0) $x21985) (or $x863 (<= (+ ?x874 ?x365 (* 2.0 S_1) L_0) 0.0)) (or $x863 (<= (+ ?x338 L_3 S_4 ?x365 S_1) 0.0)) (or $x857 $x889 $x9179) (or $x857 (<= (+ ?x4199 ?x874 ?x5930 ?x5775 L_0 ?x4681) 0.0) $x13096) $x30710 (or $x889 (<= ?x3811 0.0)) (or $x889 (<= (+ ?x342 ?x1170 L_2 S_4 ?x2884 ?x2674 ?x1171) 0.0)) (or $x889 $x7983) $x29776 $x22930 $x25243 $x24774 (or $x869 (<= (+ ?x338 L_3 S_4 ?x376 S_0) 0.0)) $x25693 $x24345 (or $x857 $x5926) $x26460 (or $x869 $x9335) (or $x863 (<= (+ ?x338 A_1 L_3 S_4 ?x365 ?x441) 0.0) $x10988) $x709 $x34 (<= (+ ?x874 S_0 L_0) 0.0) $x1086 (<= (+ (* (- 1.0) A_4) L_3 S_4) 0.0) (<= (+ ?x338 L_3 S_3) 0.0) (<= (+ ?x342 S_2 L_2) 0.0) (<= (+ (* (- 1.0) A_1) S_1 L_1) 0.0))))))))))))))))))))))))))))))))))))))))))))))))))))))))))))))))))))))))))))))))))))))))))))))))))))))))))))))))))))))))))))))))))))))))))))))))))))))))))))
(check-sat)
